min: a1 + a2;
C1: X11 =1;
C2: X21 =1;
C3: X31  + X32 =1;
C4: X42 =1;
C5: X52  + X53 =1;
C6: X61  + X62  + X63 =1;
C7: X72  + X73  + X74 =1;
C8: X82  + X83  + X84 =1;
C9: X93 =1;
C10: X104 =1;
C11: X115 =1;
 

C12: X11  + X21  + X31  + X61  +  -a1<= 0;
C13: X32  + X42  + X52  + X62  +  -a1<= 0;
C14: X53  + X63  +  -a1<= 0;
C15: C16: C17: C18: C19: C20: C21: C22: 

C23: -a2<= 0;
C24: X72  +  X82  +  -a2<= 0;
C25: X73  +  X83  +  X93  +  -a2<= 0;
C26: X74  +  X84  +  X104  +  -a2<= 0;

int a1, a2, X31, X32, X52, X61, X62, X63, X72, X73, X82, X83;